\ Model Clustering_copy
\ LP format - for model browsing. Use MPS format to capture full model detail.
Minimize
 
Subject To
<<<<<<< HEAD
 R9: ykg[10,10] >= 0.5
 R148: dkg[10,10,0] - Ck[10,0] >= -99.044132260835
 R568: dkg_prima[10,10,0] + Ck[10,0] >= 99.99999971899251
 qc0: [ 0.3333333333333333 ykg[1,10] * dkg[1,10]
   + 0.3333333333333333 ykg[1,10] * dkg_prima[1,10]
   + 0.3333333333333333 ykg[2,10] * dkg[2,10]
   + 0.3333333333333333 ykg[2,10] * dkg_prima[2,10]
   + 0.3333333333333333 ykg[3,10] * dkg[3,10]
   + 0.3333333333333333 ykg[3,10] * dkg_prima[3,10]
   + 0.3333333333333333 ykg[4,10] * dkg[4,10]
   + 0.3333333333333333 ykg[4,10] * dkg_prima[4,10]
   + 0.3333333333333333 ykg[7,10] * dkg[7,10]
   + 0.3333333333333333 ykg[7,10] * dkg_prima[7,10]
   + 0.3333333333333333 ykg[8,10] * dkg[8,10]
   + 0.3333333333333333 ykg[8,10] * dkg_prima[8,10]
   + 0.3333333333333333 ykg[10,10] * dkg[10,10]
   + 0.3333333333333333 ykg[10,10] * dkg_prima[10,10] ]
   <= 0.0846049286083321
 qc1: [ - dkg[10,10] ^2 + dkg[10,10,0] ^2 + dkg[10,10,1] ^2 ] <= 0
 qc2: [ - dkg_prima[10,10] ^2 + dkg_prima[10,10,0] ^2
   + dkg_prima[10,10,1] ^2 ] <= 0
=======
<<<<<<< HEAD
 qc0: [ 0.3333333333333333 ykg[1,5] * dkg[1,5]
   + 0.3333333333333333 ykg[1,5] * dkg_prima[1,5]
   + 0.3333333333333333 ykg[3,5] * dkg[3,5]
   + 0.3333333333333333 ykg[3,5] * dkg_prima[3,5]
   + 0.3333333333333333 ykg[5,5] * dkg[5,5]
   + 0.3333333333333333 ykg[5,5] * dkg_prima[5,5] ] <= -5.725258202487229
>>>>>>> 3a51f46fde70263994fead601d89787d7cdbc512
Bounds
 dkg[10,10,0] free
 dkg[10,10,1] free
 dkg_prima[10,10,0] free
 dkg_prima[10,10,1] free
 Ck[10,0] free
Binaries
<<<<<<< HEAD
 ykg[1,10] ykg[2,10] ykg[3,10] ykg[4,10] ykg[7,10] ykg[8,10] ykg[10,10]
=======
 ykg[1,5] ykg[3,5] ykg[5,5]
=======
 qc0: [ 0.3333333333333333 ykg[1,9] * dkg[1,9]
   + 0.3333333333333333 ykg[1,9] * dkg_prima[1,9]
   + 0.3333333333333333 ykg[2,9] * dkg[2,9]
   + 0.3333333333333333 ykg[2,9] * dkg_prima[2,9]
   + 0.3333333333333333 ykg[3,9] * dkg[3,9]
   + 0.3333333333333333 ykg[3,9] * dkg_prima[3,9]
   + 0.3333333333333333 ykg[4,9] * dkg[4,9]
   + 0.3333333333333333 ykg[4,9] * dkg_prima[4,9]
   + 0.3333333333333333 ykg[5,9] * dkg[5,9]
   + 0.3333333333333333 ykg[5,9] * dkg_prima[5,9]
   + 0.3333333333333333 ykg[8,9] * dkg[8,9]
   + 0.3333333333333333 ykg[8,9] * dkg_prima[8,9]
   + 0.3333333333333333 ykg[9,9] * dkg[9,9]
   + 0.3333333333333333 ykg[9,9] * dkg_prima[9,9]
   + 0.3333333333333333 ykg[10,9] * dkg[10,9]
   + 0.3333333333333333 ykg[10,9] * dkg_prima[10,9] ]
   <= -2.781307955539262
Bounds
Binaries
 ykg[1,9] ykg[2,9] ykg[3,9] ykg[4,9] ykg[5,9] ykg[8,9] ykg[9,9] ykg[10,9]
>>>>>>> 6a1cf8478cb8e997dbbbfbda7ebeecd01334c703
>>>>>>> 3a51f46fde70263994fead601d89787d7cdbc512
End
